Using license file /home/benedond/gurobi.lic
Using gurobi.env file
Set parameter Threads to value 1
Academic license - for non-commercial use only
Changed value of parameter TimeLimit to 300.0
   Prev: inf  Min: 0.0  Max: inf  Default: inf
Gurobi Optimizer version 9.0.1 build v9.0.1rc0 (linux64)
Optimize a model with 3614 rows, 3413 columns and 16611 nonzeros
Model fingerprint: 0x8834bbce
Variable types: 80 continuous, 3333 integer (3333 binary)
Coefficient statistics:
  Matrix range     [2e-01, 4e+02]
  Objective range  [6e-03, 2e-01]
  Bounds range     [1e+00, 1e+00]
  RHS range        [1e+00, 2e+03]
Presolve removed 129 rows and 95 columns
Presolve time: 0.07s
Presolved: 3485 rows, 3318 columns, 16020 nonzeros
Variable types: 79 continuous, 3239 integer (3239 binary)

Root relaxation: objective 2.015690e+00, 3433 iterations, 0.17 seconds

    Nodes    |    Current Node    |     Objective Bounds      |     Work
 Expl Unexpl |  Obj  Depth IntInf | Incumbent    BestBd   Gap | It/Node Time

     0     0    2.01569    0  258          -    2.01569      -     -    0s
     0     0    2.11634    0  238          -    2.11634      -     -    0s
     0     0    2.12256    0  238          -    2.12256      -     -    0s
     0     0    2.23329    0  263          -    2.23329      -     -    0s
H    0     0                       4.5993029    2.23329  51.4%     -    0s
H    0     0                       3.7408629    2.23329  40.3%     -    0s
H    0     0                       3.6248800    2.23329  38.4%     -    1s
     0     0    2.23575    0  236    3.62488    2.23575  38.3%     -    1s
     0     0    2.30898    0  227    3.62488    2.30898  36.3%     -    1s
     0     0    2.34708    0  206    3.62488    2.34708  35.3%     -    2s
     0     0    2.35722    0  204    3.62488    2.35722  35.0%     -    2s
     0     0    2.36102    0  222    3.62488    2.36102  34.9%     -    2s
     0     0    2.36272    0  230    3.62488    2.36272  34.8%     -    2s
     0     0    2.36447    0  230    3.62488    2.36447  34.8%     -    2s
     0     0    2.36478    0  221    3.62488    2.36478  34.8%     -    2s
     0     0    2.36478    0  221    3.62488    2.36478  34.8%     -    2s
     0     0    2.39331    0  198    3.62488    2.39331  34.0%     -    2s
     0     0    2.40803    0  262    3.62488    2.40803  33.6%     -    2s
     0     0    2.41148    0  207    3.62488    2.41148  33.5%     -    2s
     0     0    2.41492    0  252    3.62488    2.41492  33.4%     -    2s
     0     0    2.41533    0  248    3.62488    2.41533  33.4%     -    2s
     0     0    2.41537    0  255    3.62488    2.41537  33.4%     -    2s
     0     0    2.42610    0  231    3.62488    2.42610  33.1%     -    2s
     0     0    2.43055    0  216    3.62488    2.43055  32.9%     -    2s
     0     0    2.43120    0  254    3.62488    2.43120  32.9%     -    2s
     0     0    2.43130    0  249    3.62488    2.43130  32.9%     -    3s
     0     0    2.44341    0  248    3.62488    2.44341  32.6%     -    3s
     0     0    2.45124    0  276    3.62488    2.45124  32.4%     -    3s
     0     0    2.45221    0  304    3.62488    2.45221  32.4%     -    3s
     0     0    2.45231    0  255    3.62488    2.45231  32.3%     -    3s
     0     0    2.46543    0  241    3.62488    2.46543  32.0%     -    3s
     0     0    2.46677    0  230    3.62488    2.46677  31.9%     -    3s
     0     0    2.46713    0  238    3.62488    2.46713  31.9%     -    3s
     0     0    2.46717    0  236    3.62488    2.46717  31.9%     -    3s
     0     0    2.48064    0  238    3.62488    2.48064  31.6%     -    3s
     0     0    2.48449    0  209    3.62488    2.48449  31.5%     -    3s
     0     0    2.48587    0  186    3.62488    2.48587  31.4%     -    3s
     0     0    2.48631    0  177    3.62488    2.48631  31.4%     -    3s
     0     0    2.48637    0  201    3.62488    2.48637  31.4%     -    3s
     0     0    2.49778    0  262    3.62488    2.49778  31.1%     -    4s
     0     0    2.50025    0  273    3.62488    2.50025  31.0%     -    4s
     0     0    2.50107    0  234    3.62488    2.50107  31.0%     -    4s
     0     0    2.50120    0  162    3.62488    2.50120  31.0%     -    4s
     0     0    2.51023    0  254    3.62488    2.51023  30.7%     -    4s
H    0     0                       3.4159543    2.51023  26.5%     -    4s
     0     0    2.51251    0  313    3.41595    2.51251  26.4%     -    4s
     0     0    2.51401    0  288    3.41595    2.51401  26.4%     -    4s
     0     0    2.51423    0  308    3.41595    2.51423  26.4%     -    4s
     0     0    2.52072    0  254    3.41595    2.52072  26.2%     -    4s
H    0     0                       3.4032343    2.52072  25.9%     -    4s
     0     0    2.52338    0  251    3.40323    2.52338  25.9%     -    4s
     0     0    2.52432    0  306    3.40323    2.52432  25.8%     -    4s
     0     0    2.52444    0  292    3.40323    2.52444  25.8%     -    4s
     0     0    2.52672    0  301    3.40323    2.52672  25.8%     -    4s
H    0     0                       3.3352057    2.52672  24.2%     -    4s
     0     0    2.52789    0  241    3.33521    2.52789  24.2%     -    4s
     0     0    2.52819    0  250    3.33521    2.52819  24.2%     -    5s
     0     0    2.53246    0  285    3.33521    2.53246  24.1%     -    5s
     0     0    2.53479    0  250    3.33521    2.53479  24.0%     -    5s
     0     0    2.53492    0  277    3.33521    2.53492  24.0%     -    5s
     0     0    2.53687    0  290    3.33521    2.53687  23.9%     -    5s
     0     0    2.53788    0  281    3.33521    2.53788  23.9%     -    5s
     0     0    2.53829    0  277    3.33521    2.53829  23.9%     -    5s
     0     0    2.53839    0  253    3.33521    2.53839  23.9%     -    5s
     0     0    2.54120    0  299    3.33521    2.54120  23.8%     -    5s
     0     0    2.54156    0  310    3.33521    2.54156  23.8%     -    5s
     0     0    2.54460    0  275    3.33521    2.54460  23.7%     -    5s
     0     0    2.54460    0  275    3.33521    2.54460  23.7%     -    6s
     0     2    2.54472    0  275    3.33521    2.54472  23.7%     -    6s
H   27    27                       3.3176171    2.54788  23.2%   326   11s
H   54    54                       3.2569200    2.54788  21.8%   307   15s
   264   243    2.73825   21  185    3.25692    2.55106  21.7%   228   20s
H  300   274                       3.2281600    2.55106  21.0%   242   23s
   354   330    2.98046   92   79    3.22816    2.55106  21.0%   235   25s
H  510   449                       3.2281600    2.55146  21.0%   213   29s
   511   450    2.84353   45  275    3.22816    2.55146  21.0%   212   30s
   528   461    3.11363  127  294    3.22816    2.57675  20.2%   205   35s
   542   471    3.09885  124  310    3.22816    2.59945  19.5%   200   42s
   552   477    3.01975   61  296    3.22816    2.60947  19.2%   196   45s
   572   491    2.89363   79  341    3.22816    2.62281  18.8%   189   50s
   589   502    2.92199   73  437    3.22816    2.63161  18.5%   184   55s
   604   512    2.82978   38  402    3.22816    2.63661  18.3%   179   60s
   620   523    3.22389  119  371    3.22816    2.64084  18.2%   175   65s
   635   533    2.80344   33  373    3.22816    2.64603  18.0%   171   70s
   650   543    2.82370   73  369    3.22816    2.64988  17.9%   167   75s
   666   554    3.13037  140  222    3.22816    2.65111  17.9%   278   80s
H  679   534                       3.2098972    2.65336  17.3%   273   88s
   686   539    2.75917   16  411    3.20990    2.65519  17.3%   270   90s
   697   546    2.65853   34  393    3.20990    2.65853  17.2%   266   95s
   714   557    2.96050   57  403    3.20990    2.66137  17.1%   260  108s
   716   559    2.67963   40  403    3.20990    2.66137  17.1%   259  110s
   717   561    2.66139   25  398    3.20990    2.66139  17.1%   303  120s
   721   564    2.66145   27  378    3.20990    2.66145  17.1%   305  125s
   730   570    2.81278   31  206    3.20990    2.66267  17.0%   315  130s
   742   578    2.71885   37  250    3.20990    2.66445  17.0%   323  135s
   750   583    2.77139   41  244    3.20990    2.66568  17.0%   330  140s
   764   593    2.69080   48  293    3.20990    2.66895  16.9%   342  145s
H  770   566                       3.1966857    2.67117  16.4%   344  147s
   777   572    2.72888   55  201    3.19669    2.67459  16.3%   352  150s
   790   581    2.72199   61  263    3.19669    2.68118  16.1%   360  155s
   804   590    2.88025   68  187    3.19669    2.68118  16.1%   372  160s
   824   604    2.83449   78  263    3.19669    2.68118  16.1%   383  165s
   847   618    2.75856   90  202    3.19669    2.68118  16.1%   395  170s
   874   636    2.94277  103  176    3.19669    2.68118  16.1%   410  175s
H  878   609                       3.1646971    2.68118  15.3%   411  175s
H  934   574                       3.1646971    2.68118  15.3%   409  180s
   953   584    2.86355   51  247    3.16470    2.68121  15.3%   416  185s
   974   598    2.73977   62  296    3.16470    2.68121  15.3%   423  190s
   993   608    2.75800   71  218    3.16470    2.68121  15.3%   431  197s
  1007   618    2.78410   78  257    3.16470    2.68121  15.3%   435  200s
  1033   627     cutoff   91         3.16470    2.68121  15.3%   445  205s
  1065   644     cutoff  107         3.16470    2.68121  15.3%   450  210s
  1103   665    3.01263  126  136    3.16470    2.68121  15.3%   452  215s
  1224   683    3.09917  188   69    3.16470    2.68121  15.3%   429  220s
  1273   690    3.08359   57  196    3.16470    2.68605  15.1%   430  225s
  1319   714    3.03704   80  164    3.16470    2.68605  15.1%   432  230s
H 1341   694                       3.1619029    2.68605  15.0%   429  231s
  1436   719    3.13395  140   85    3.16190    2.68605  15.0%   413  235s
H 1557   668                       3.1437143    2.68605  14.6%   389  237s
  1608   669    2.95191   63  230    3.14371    2.68609  14.6%   381  240s
  1782   739    2.91537   64  180    3.14371    2.68880  14.5%   360  245s
  1886   801    3.07197  142  106    3.14371    2.68880  14.5%   355  250s
H 1975   726                       3.0997429    2.69114  13.2%   349  257s
  2031   784    2.84321  122  126    3.09974    2.69114  13.2%   345  260s
  2182   878    2.87820   74  122    3.09974    2.69157  13.2%   335  265s
  2249   933    2.86878   79  291    3.09974    2.69182  13.2%   335  270s
  2444  1046    2.72339   47  260    3.09974    2.69363  13.1%   316  275s
  2549  1141    2.79453   51  148    3.09974    2.69380  13.1%   313  280s
  2610  1199    2.97196   88  154    3.09974    2.69380  13.1%   315  285s
  2713  1259    2.91862   34  234    3.09974    2.69549  13.0%   311  290s
  2752  1268     cutoff   46         3.09974    2.70135  12.9%   315  295s

Cutting planes:
  Cover: 12
  Implied bound: 3
  Projected implied bound: 2
  Clique: 10
  MIR: 271
  StrongCG: 1
  Flow cover: 640
  GUB cover: 4
  RLT: 16
  Relax-and-lift: 287

Explored 2772 nodes (903026 simplex iterations) in 300.00 seconds
Thread count was 1 (of 4 available processors)

Solution count 10: 3.09974 3.14371 3.1619 ... 3.31762

Time limit reached
Best objective 3.099742861050e+00, best bound 2.702664960976e+00, gap 12.8100%
